55
150
104	1
102	1
101	1
99	1
98	1
96	1
94	2
93	3
91	1
89	2
88	1
87	1
85	3
83	1
82	2
81	4
80	1
78	4
77	2
76	1
75	2
74	1
71	2
70	3
69	2
68	1
65	3
64	2
63	1
62	1
61	3
60	2
59	2
58	2
56	5
55	2
54	2
53	2
52	1
51	3
50	1
47	1
46	2
45	2
44	1
43	2
42	2
41	1
40	1
39	1
38	5
36	1
33	1
32	1
30	2
